10001001110101010010111101100101000110011010010100,00000000000000000000000000000000000000000000000000,00000000000000000000000000000000000000000000000000,00000000000000000000000000000000000000000000000000,00000000000000000000000000000000000000000000000000,00000000000000000000000000000000000000000000000000,00000000000000000000000000000000000000000000000000,00000000000000000000000000000000000000000000000000,01110110001010101101000010011010111001100101100011,00000000000000000000000000000000000000000000000000,[4, 0, 0, 0, 9, 0, 0, 9, 4, 6, 0, 9, 0, 4, 0, 2, 0, 0, 2, 0, 6, 9, 4, 6, 0, 10, 9, 0, 0, 10, 0, 9, 0, 0, 0, 2, 2, 0, 0, 10, 10, 0, 6, 0, 0, 10, 0, 10, 0, 0],[],[],[],[],[],[],[],[0, 5, 8, 7, 0, 8, 1, 0, 0, 0, 1, 0, 3, 0, 5, 0, 3, 7, 0, 5, 0, 0, 0, 0, 5, 0, 0, 7, 7, 0, 3, 0, 8, 5, 7, 0, 0, 7, 8, 0, 0, 1, 0, 8, 8, 0, 0, 0, 3, 5],[][6, 41, 10],[18, 35, 15, 36],[48, 30, 16, 12],[13, 0, 22, 8],[33, 14, 24, 49, 19, 1],[42, 23, 20, 9],[37, 3, 17, 28, 27, 34],[5, 44, 2, 38, 32, 43],[21, 11, 26, 31, 7, 4],[47, 25, 45, 39, 40, 29]
10001001110101010010111101100101000110011010010100,00000000000000000000000000000000000000000000000000,00000000000000000000000000000000000000000000000000,00000000000000000000000000000000000000000000000000,00000000000000000000000000000000000000000000000000,00000000000000000000000000000000000000000000000000,00000000000000000000000000000000000000000000000000,00000000000000000000000000000000000000000000000000,01110110001010101101000010011010111001100101100011,00000000000000000000000000000000000000000000000000,[4, 0, 0, 0, 8, 0, 0, 7, 4, 3, 0, 4, 0, 8, 0, 8, 0, 0, 8, 0, 7, 8, 8, 8, 0, 3, 3, 0, 0, 7, 0, 7, 0, 0, 0, 5, 5, 0, 0, 4, 8, 0, 3, 0, 0, 5, 0, 5, 0, 0],[],[],[],[],[],[],[],[0, 6, 10, 2, 0, 2, 10, 0, 0, 0, 10, 0, 9, 0, 6, 0, 2, 9, 0, 6, 0, 0, 0, 0, 1, 0, 0, 10, 1, 0, 9, 0, 9, 2, 9, 0, 0, 9, 10, 0, 0, 1, 0, 6, 10, 0, 0, 0, 2, 1],[][37, 24, 6],[3, 16, 19, 38, 33, 14, 10],[39, 40, 9, 8],[1, 44, 28, 17, 49],[45, 20, 21],[47, 13, 15, 36],[42, 29, 7, 31, 25],[11, 35, 18, 23, 26, 4, 0, 22],[43, 32, 5, 2, 12],[27, 34, 48, 41, 30]
10001001110101010010111101100101000110011010010100,00000000000000000000000000000000000000000000000000,00000000000000000000000000000000000000000000000000,00000000000000000000000000000000000000000000000000,00000000000000000000000000000000000000000000000000,00000000000000000000000000000000000000000000000000,00000000000000000000000000000000000000000000000000,00000000000000000000000000000000000000000000000000,01110110001010101101000010011010111001100101100011,00000000000000000000000000000000000000000000000000,[7, 0, 0, 0, 4, 0, 0, 4, 2, 4, 0, 6, 0, 2, 0, 6, 0, 0, 1, 0, 1, 7, 1, 1, 0, 6, 4, 0, 0, 7, 0, 4, 0, 0, 0, 7, 6, 0, 0, 2, 7, 0, 6, 0, 0, 2, 0, 4, 0, 0],[],[],[],[],[],[],[],[0, 8, 8, 10, 0, 5, 8, 0, 0, 0, 9, 0, 10, 0, 5, 0, 9, 9, 0, 10, 0, 0, 0, 0, 8, 0, 0, 8, 3, 0, 5, 0, 10, 3, 3, 0, 0, 9, 5, 0, 0, 3, 0, 9, 9, 0, 0, 0, 10, 10],[][20, 23, 18, 22],[8, 39, 45, 13],[41, 34, 28, 33],[26, 9, 31, 47, 4, 7],[14, 30, 38, 5],[15, 11, 42, 36, 25],[0, 29, 35, 40, 21],[6, 24, 1, 2, 27],[44, 43, 37, 16, 10, 17],[48, 12, 49, 19, 3, 32]
10001001110101010010111101100101000110011010010100,00000000000000000000000000000000000000000000000000,00000000000000000000000000000000000000000000000000,00000000000000000000000000000000000000000000000000,00000000000000000000000000000000000000000000000000,00000000000000000000000000000000000000000000000000,00000000000000000000000000000000000000000000000000,00000000000000000000000000000000000000000000000000,01110110001010101101000010011010111001100101100011,00000000000000000000000000000000000000000000000000,[5, 0, 0, 0, 1, 0, 0, 10, 8, 7, 0, 8, 0, 7, 0, 1, 0, 0, 7, 0, 10, 10, 8, 10, 0, 1, 5, 0, 0, 5, 0, 7, 0, 0, 0, 10, 8, 0, 0, 8, 1, 0, 7, 0, 0, 8, 0, 8, 0, 0],[],[],[],[],[],[],[],[0, 3, 2, 9, 0, 4, 9, 0, 0, 0, 9, 0, 4, 0, 9, 0, 3, 2, 0, 2, 0, 0, 0, 0, 3, 0, 0, 2, 4, 0, 3, 0, 3, 4, 4, 0, 0, 6, 4, 0, 0, 6, 0, 2, 2, 0, 0, 0, 9, 6],[][25, 4, 15, 40],[43, 19, 27, 2, 17, 44],[1, 32, 30, 16, 24],[12, 28, 5, 38, 33, 34],[26, 29, 0],[41, 49, 37],[9, 18, 42, 13, 31],[8, 45, 36, 39, 47, 22, 11],[10, 14, 48, 3, 6],[35, 23, 20, 21, 7]
10001001110101010010111101100101000110011010010100,00000000000000000000000000000000000000000000000000,00000000000000000000000000000000000000000000000000,00000000000000000000000000000000000000000000000000,00000000000000000000000000000000000000000000000000,00000000000000000000000000000000000000000000000000,00000000000000000000000000000000000000000000000000,00000000000000000000000000000000000000000000000000,01110110001010101101000010011010111001100101100011,00000000000000000000000000000000000000000000000000,[1, 0, 0, 0, 1, 0, 0, 8, 1, 6, 0, 8, 0, 6, 0, 9, 0, 0, 5, 0, 8, 8, 8, 8, 0, 9, 5, 0, 0, 6, 0, 1, 0, 0, 0, 9, 5, 0, 0, 9, 6, 0, 9, 0, 0, 9, 0, 8, 0, 0],[],[],[],[],[],[],[],[0, 3, 3, 10, 0, 4, 2, 0, 0, 0, 7, 0, 10, 0, 4, 0, 4, 3, 0, 7, 0, 0, 0, 0, 7, 0, 0, 3, 10, 0, 2, 0, 10, 4, 4, 0, 0, 10, 7, 0, 0, 2, 0, 10, 4, 0, 0, 0, 7, 2],[][8, 0, 4, 31],[49, 6, 41, 30],[1, 2, 17, 27],[44, 34, 16, 14, 5, 33],[18, 26, 36],[13, 29, 9, 40],[10, 48, 24, 19, 38],[23, 11, 20, 47, 22, 7, 21],[35, 45, 15, 39, 42, 25],[37, 32, 43, 3, 12, 28]
10001001110101010010111101100101000110011010010100,00000000000000000000000000000000000000000000000000,00000000000000000000000000000000000000000000000000,00000000000000000000000000000000000000000000000000,00000000000000000000000000000000000000000000000000,00000000000000000000000000000000000000000000000000,00000000000000000000000000000000000000000000000000,00000000000000000000000000000000000000000000000000,01110110001010101101000010011010111001100101100011,00000000000000000000000000000000000000000000000000,[3, 0, 0, 0, 6, 0, 0, 8, 4, 8, 0, 4, 0, 2, 0, 8, 0, 0, 3, 0, 6, 2, 3, 4, 0, 3, 4, 0, 0, 2, 0, 6, 0, 0, 0, 4, 4, 0, 0, 8, 8, 0, 2, 0, 0, 6, 0, 3, 0, 0],[],[],[],[],[],[],[],[0, 1, 9, 1, 0, 10, 1, 0, 0, 0, 5, 0, 1, 0, 7, 0, 10, 9, 0, 5, 0, 0, 0, 0, 10, 0, 0, 10, 9, 0, 7, 0, 9, 7, 10, 0, 0, 1, 10, 0, 0, 9, 0, 9, 5, 0, 0, 0, 7, 7],[][1, 12, 6, 37, 3],[21, 29, 13, 42],[22, 0, 47, 18, 25],[26, 35, 23, 11, 8, 36],[10, 44, 19],[31, 20, 4, 45],[33, 30, 49, 48, 14],[40, 15, 7, 39, 9],[17, 28, 2, 43, 32, 41],[27, 24, 16, 38, 34, 5]
10001001110101010010111101100101000110011010010100,00000000000000000000000000000000000000000000000000,00000000000000000000000000000000000000000000000000,00000000000000000000000000000000000000000000000000,00000000000000000000000000000000000000000000000000,00000000000000000000000000000000000000000000000000,00000000000000000000000000000000000000000000000000,00000000000000000000000000000000000000000000000000,01110110001010101101000010011010111001100101100011,00000000000000000000000000000000000000000000000000,[7, 0, 0, 0, 3, 0, 0, 7, 9, 3, 0, 6, 0, 3, 0, 4, 0, 0, 9, 0, 9, 7, 7, 9, 0, 9, 6, 0, 0, 7, 0, 3, 0, 0, 0, 4, 7, 0, 0, 6, 9, 0, 9, 0, 0, 4, 0, 6, 0, 0],[],[],[],[],[],[],[],[0, 5, 2, 10, 0, 5, 2, 0, 0, 0, 10, 0, 8, 0, 1, 0, 8, 10, 0, 2, 0, 0, 0, 0, 5, 0, 0, 2, 8, 0, 10, 0, 5, 10, 5, 0, 0, 8, 8, 0, 0, 10, 0, 1, 8, 0, 0, 0, 1, 8],[][14, 43, 48],[19, 6, 27, 2],[4, 9, 13, 31],[15, 45, 35],[24, 32, 34, 1, 5],[11, 39, 26, 47],[36, 0, 22, 21, 29, 7],[37, 16, 38, 28, 12, 44, 49],[25, 42, 40, 23, 18, 8, 20],[10, 3, 30, 41, 17, 33]
10001001110101010010111101100101000110011010010100,00000000000000000000000000000000000000000000000000,00000000000000000000000000000000000000000000000000,00000000000000000000000000000000000000000000000000,00000000000000000000000000000000000000000000000000,00000000000000000000000000000000000000000000000000,00000000000000000000000000000000000000000000000000,00000000000000000000000000000000000000000000000000,01110110001010101101000010011010111001100101100011,00000000000000000000000000000000000000000000000000,[8, 0, 0, 0, 8, 0, 0, 4, 6, 8, 0, 8, 0, 1, 0, 9, 0, 0, 1, 0, 6, 6, 9, 8, 0, 9, 6, 0, 0, 6, 0, 1, 0, 0, 0, 8, 4, 0, 0, 9, 4, 0, 9, 0, 0, 9, 0, 9, 0, 0],[],[],[],[],[],[],[],[0, 5, 10, 5, 0, 5, 7, 0, 0, 0, 3, 0, 5, 0, 7, 0, 3, 10, 0, 7, 0, 0, 0, 0, 10, 0, 0, 10, 5, 0, 5, 0, 7, 10, 2, 0, 0, 3, 10, 0, 0, 2, 0, 2, 10, 0, 0, 0, 7, 2],[][13, 31, 18],[34, 43, 41, 49],[37, 10, 16],[36, 40, 7],[3, 30, 5, 28, 1, 12],[20, 8, 29, 21, 26],[14, 32, 48, 19, 6],[0, 4, 11, 9, 35, 23],[15, 45, 42, 39, 22, 25, 47],[2, 27, 17, 44, 33, 38, 24]
10001001110101010010111101100101000110011010010100,00000000000000000000000000000000000000000000000000,00000000000000000000000000000000000000000000000000,00000000000000000000000000000000000000000000000000,00000000000000000000000000000000000000000000000000,00000000000000000000000000000000000000000000000000,00000000000000000000000000000000000000000000000000,00000000000000000000000000000000000000000000000000,01110110001010101101000010011010111001100101100011,00000000000000000000000000000000000000000000000000,[8, 0, 0, 0, 4, 0, 0, 6, 4, 1, 0, 4, 0, 8, 0, 6, 0, 0, 5, 0, 4, 6, 1, 1, 0, 5, 4, 0, 0, 4, 0, 1, 0, 0, 0, 1, 8, 0, 0, 8, 8, 0, 5, 0, 0, 5, 0, 8, 0, 0],[],[],[],[],[],[],[],[0, 3, 2, 2, 0, 10, 3, 0, 0, 0, 9, 0, 9, 0, 7, 0, 10, 10, 0, 2, 0, 0, 0, 0, 10, 0, 0, 9, 10, 0, 7, 0, 3, 3, 2, 0, 0, 3, 7, 0, 0, 7, 0, 9, 9, 0, 0, 0, 7, 10],[][35, 9, 23, 22, 31],[19, 3, 34, 2],[33, 32, 37, 6, 1],[4, 26, 8, 20, 29, 11],[18, 25, 42, 45],[21, 15, 7],[30, 14, 48, 38, 41],[40, 36, 13, 47, 0, 39],[10, 27, 44, 12, 43],[24, 16, 49, 17, 5, 28]
10001001110101010010111101100101000110011010010100,00000000000000000000000000000000000000000000000000,00000000000000000000000000000000000000000000000000,00000000000000000000000000000000000000000000000000,00000000000000000000000000000000000000000000000000,00000000000000000000000000000000000000000000000000,00000000000000000000000000000000000000000000000000,00000000000000000000000000000000000000000000000000,01110110001010101101000010011010111001100101100011,00000000000000000000000000000000000000000000000000,[5, 0, 0, 0, 5, 0, 0, 8, 5, 7, 0, 3, 0, 7, 0, 8, 0, 0, 3, 0, 8, 3, 8, 8, 0, 4, 4, 0, 0, 4, 0, 7, 0, 0, 0, 8, 7, 0, 0, 3, 5, 0, 4, 0, 0, 4, 0, 4, 0, 0],[],[],[],[],[],[],[],[0, 2, 6, 1, 0, 10, 1, 0, 0, 0, 10, 0, 6, 0, 9, 0, 10, 9, 0, 6, 0, 0, 0, 0, 10, 0, 0, 2, 1, 0, 9, 0, 2, 9, 10, 0, 0, 2, 2, 0, 0, 9, 0, 6, 10, 0, 0, 0, 1, 9],[][28, 6, 3, 48],[1, 27, 37, 32, 38],[11, 18, 39, 21],[47, 45, 42, 29, 26, 25],[40, 4, 0, 8],[12, 2, 19, 43],[13, 36, 31, 9],[15, 35, 23, 22, 20, 7],[33, 17, 41, 49, 30, 14],[16, 34, 10, 5, 24, 44]
10001001110101010010111101100101000110011010010100,00000000000000000000000000000000000000000000000000,00000000000000000000000000000000000000000000000000,00000000000000000000000000000000000000000000000000,00000000000000000000000000000000000000000000000000,00000000000000000000000000000000000000000000000000,00000000000000000000000000000000000000000000000000,00000000000000000000000000000000000000000000000000,01110110001010101101000010011010111001100101100011,00000000000000000000000000000000000000000000000000,[3, 0, 0, 0, 2, 0, 0, 3, 9, 9, 0, 2, 0, 9, 0, 1, 0, 0, 1, 0, 3, 5, 5, 9, 0, 3, 5, 0, 0, 5, 0, 1, 0, 0, 0, 9, 1, 0, 0, 2, 2, 0, 5, 0, 0, 9, 0, 1, 0, 0],[],[],[],[],[],[],[],[0, 10, 4, 7, 0, 7, 7, 0, 0, 0, 8, 0, 6, 0, 10, 0, 6, 8, 0, 7, 0, 0, 0, 0, 6, 0, 0, 8, 10, 0, 4, 0, 6, 7, 8, 0, 0, 4, 10, 0, 0, 8, 0, 7, 10, 0, 0, 0, 10, 8],[][15, 36, 31, 47, 18],[40, 11, 39, 4],[0, 20, 25, 7],[37, 30, 2],[26, 22, 42, 29, 21],[24, 32, 16, 12],[5, 3, 43, 6, 19, 33],[49, 41, 34, 27, 17, 10],[8, 9, 23, 35, 45, 13],[28, 14, 38, 48, 44, 1]
10001001110101010010111101100101000110011010010100,00000000000000000000000000000000000000000000000000,00000000000000000000000000000000000000000000000000,00000000000000000000000000000000000000000000000000,00000000000000000000000000000000000000000000000000,00000000000000000000000000000000000000000000000000,00000000000000000000000000000000000000000000000000,00000000000000000000000000000000000000000000000000,01110110001010101101000010011010111001100101100011,00000000000000000000000000000000000000000000000000,[8, 0, 0, 0, 8, 0, 0, 8, 10, 6, 0, 5, 0, 6, 0, 1, 0, 0, 8, 0, 6, 6, 8, 1, 0, 5, 5, 0, 0, 10, 0, 5, 0, 0, 0, 10, 8, 0, 0, 10, 10, 0, 6, 0, 0, 1, 0, 5, 0, 0],[],[],[],[],[],[],[],[0, 3, 2, 7, 0, 9, 7, 0, 0, 0, 7, 0, 9, 0, 4, 0, 2, 4, 0, 4, 0, 0, 0, 0, 9, 0, 0, 4, 2, 0, 9, 0, 7, 3, 4, 0, 0, 9, 3, 0, 0, 2, 0, 7, 9, 0, 0, 0, 3, 3],[][23, 15, 45],[28, 2, 16, 41],[38, 49, 48, 1, 33],[17, 27, 34, 19, 14],[47, 26, 25, 31, 11],[42, 13, 21, 20, 9],[32, 43, 3, 6, 10],[4, 22, 36, 7, 0, 18],[12, 44, 5, 24, 30, 37],[35, 8, 29, 39, 40]
10001001110101010010111101100101000110011010010100,00000000000000000000000000000000000000000000000000,00000000000000000000000000000000000000000000000000,00000000000000000000000000000000000000000000000000,00000000000000000000000000000000000000000000000000,00000000000000000000000000000000000000000000000000,00000000000000000000000000000000000000000000000000,00000000000000000000000000000000000000000000000000,01110110001010101101000010011010111001100101100011,00000000000000000000000000000000000000000000000000,[9, 0, 0, 0, 10, 0, 0, 10, 3, 2, 0, 3, 0, 1, 0, 9, 0, 0, 1, 0, 3, 2, 2, 9, 0, 9, 3, 0, 0, 10, 0, 2, 0, 0, 0, 9, 3, 0, 0, 9, 10, 0, 1, 0, 0, 1, 0, 10, 0, 0],[],[],[],[],[],[],[],[0, 4, 8, 7, 0, 7, 6, 0, 0, 0, 7, 0, 4, 0, 7, 0, 7, 8, 0, 7, 0, 0, 0, 0, 8, 0, 0, 4, 5, 0, 8, 0, 5, 4, 5, 0, 0, 6, 4, 0, 0, 5, 0, 5, 4, 0, 0, 0, 8, 6],[][13, 45, 42, 18],[31, 22, 21, 9],[20, 8, 11, 36, 26],[12, 1, 44, 27, 33, 38],[34, 43, 32, 41, 28],[37, 49, 6],[19, 16, 3, 14, 5, 10],[2, 48, 30, 17, 24],[0, 39, 15, 35, 23, 25],[47, 40, 29, 7, 4]
10001001110101010010111101100101000110011010010100,00000000000000000000000000000000000000000000000000,00000000000000000000000000000000000000000000000000,00000000000000000000000000000000000000000000000000,00000000000000000000000000000000000000000000000000,00000000000000000000000000000000000000000000000000,00000000000000000000000000000000000000000000000000,00000000000000000000000000000000000000000000000000,01110110001010101101000010011010111001100101100011,00000000000000000000000000000000000000000000000000,[9, 0, 0, 0, 9, 0, 0, 4, 10, 7, 0, 10, 0, 7, 0, 1, 0, 0, 7, 0, 4, 9, 1, 10, 0, 9, 7, 0, 0, 4, 0, 9, 0, 0, 0, 1, 7, 0, 0, 9, 10, 0, 10, 0, 0, 10, 0, 9, 0, 0],[],[],[],[],[],[],[],[0, 6, 3, 2, 0, 5, 5, 0, 0, 0, 6, 0, 6, 0, 6, 0, 3, 2, 0, 6, 0, 0, 0, 0, 2, 0, 0, 3, 5, 0, 5, 0, 3, 5, 2, 0, 0, 6, 8, 0, 0, 5, 0, 8, 8, 0, 0, 0, 8, 8],[][22, 15, 35],[34, 3, 24, 17],[2, 27, 16, 32],[29, 20, 7],[5, 6, 33, 30, 41, 28],[1, 19, 14, 37, 12, 10],[13, 36, 26, 18, 9],[38, 48, 49, 43, 44],[31, 4, 0, 47, 39, 21, 25],[45, 42, 40, 23, 8, 11]
10001001110101010010111101100101000110011010010100,00000000000000000000000000000000000000000000000000,00000000000000000000000000000000000000000000000000,00000000000000000000000000000000000000000000000000,00000000000000000000000000000000000000000000000000,00000000000000000000000000000000000000000000000000,00000000000000000000000000000000000000000000000000,00000000000000000000000000000000000000000000000000,01110110001010101101000010011010111001100101100011,00000000000000000000000000000000000000000000000000,[9, 0, 0, 0, 9, 0, 0, 7, 7, 9, 0, 7, 0, 7, 0, 5, 0, 0, 4, 0, 3, 7, 7, 5, 0, 7, 3, 0, 0, 5, 0, 9, 0, 0, 0, 3, 9, 0, 0, 4, 4, 0, 7, 0, 0, 7, 0, 3, 0, 0],[],[],[],[],[],[],[],[0, 2, 8, 2, 0, 2, 6, 0, 0, 0, 10, 0, 1, 0, 1, 0, 1, 10, 0, 2, 0, 0, 0, 0, 10, 0, 0, 8, 8, 0, 6, 0, 1, 10, 1, 0, 0, 8, 2, 0, 0, 10, 0, 2, 10, 0, 0, 0, 8, 6],[][12, 34, 32, 16, 14],[5, 3, 43, 38, 19, 1],[35, 26, 47, 20],[18, 39, 40],[15, 29, 23],[49, 30, 6],[25, 42, 13, 22, 45, 8, 11, 21, 7],[28, 2, 27, 37, 48],[31, 0, 36, 4, 9],[24, 41, 17, 10, 33, 44]
10001001110101010010111101100101000110011010010100,00000000000000000000000000000000000000000000000000,00000000000000000000000000000000000000000000000000,00000000000000000000000000000000000000000000000000,00000000000000000000000000000000000000000000000000,00000000000000000000000000000000000000000000000000,00000000000000000000000000000000000000000000000000,00000000000000000000000000000000000000000000000000,01110110001010101101000010011010111001100101100011,00000000000000000000000000000000000000000000000000,[2, 0, 0, 0, 7, 0, 0, 7, 7, 2, 0, 3, 0, 10, 0, 7, 0, 0, 3, 0, 7, 2, 5, 7, 0, 10, 7, 0, 0, 5, 0, 10, 0, 0, 0, 5, 2, 0, 0, 3, 10, 0, 7, 0, 0, 10, 0, 7, 0, 0],[],[],[],[],[],[],[],[0, 1, 8, 8, 0, 9, 4, 0, 0, 0, 6, 0, 9, 0, 6, 0, 9, 9, 0, 8, 0, 0, 0, 0, 1, 0, 0, 4, 6, 0, 9, 0, 4, 1, 9, 0, 0, 9, 1, 0, 0, 1, 0, 8, 6, 0, 0, 0, 8, 6],[][33, 41, 24, 38, 1],[21, 9, 0, 36],[39, 11, 18],[27, 32, 6],[22, 35, 29],[44, 49, 14, 28, 10],[4, 47, 7, 8, 23, 20, 15, 26, 42],[3, 19, 43, 48, 2],[34, 17, 5, 12, 16, 30, 37],[25, 31, 13, 45, 40]
10001001110101010010111101100101000110011010010100,00000000000000000000000000000000000000000000000000,00000000000000000000000000000000000000000000000000,00000000000000000000000000000000000000000000000000,00000000000000000000000000000000000000000000000000,00000000000000000000000000000000000000000000000000,00000000000000000000000000000000000000000000000000,00000000000000000000000000000000000000000000000000,01110110001010101101000010011010111001100101100011,00000000000000000000000000000000000000000000000000,[9, 0, 0, 0, 9, 0, 0, 5, 8, 2, 0, 5, 0, 8, 0, 9, 0, 0, 8, 0, 2, 2, 6, 9, 0, 9, 2, 0, 0, 5, 0, 8, 0, 0, 0, 8, 9, 0, 0, 5, 8, 0, 6, 0, 0, 6, 0, 6, 0, 0],[],[],[],[],[],[],[],[0, 7, 4, 10, 0, 1, 1, 0, 0, 0, 7, 0, 7, 0, 3, 0, 7, 3, 0, 10, 0, 0, 0, 0, 1, 0, 0, 3, 1, 0, 10, 0, 1, 10, 4, 0, 0, 10, 10, 0, 0, 7, 0, 4, 3, 0, 0, 0, 7, 3],[][28, 5, 24, 6, 32],[20, 21, 26, 9],[27, 17, 49, 14, 44],[2, 34, 43],[29, 11, 39, 7],[47, 22, 42, 45],[1, 12, 10, 41, 16, 48],[31, 13, 35, 8, 18, 40],[23, 15, 4, 36, 25, 0],[33, 37, 38, 19, 30, 3]
10001001110101010010111101100101000110011010010100,00000000000000000000000000000000000000000000000000,00000000000000000000000000000000000000000000000000,00000000000000000000000000000000000000000000000000,00000000000000000000000000000000000000000000000000,00000000000000000000000000000000000000000000000000,00000000000000000000000000000000000000000000000000,00000000000000000000000000000000000000000000000000,01110110001010101101000010011010111001100101100011,00000000000000000000000000000000000000000000000000,[5, 0, 0, 0, 8, 0, 0, 5, 8, 3, 0, 1, 0, 1, 0, 10, 0, 0, 8, 0, 10, 8, 5, 8, 0, 8, 3, 0, 0, 10, 0, 1, 0, 0, 0, 3, 5, 0, 0, 10, 8, 0, 1, 0, 0, 10, 0, 3, 0, 0],[],[],[],[],[],[],[],[0, 9, 2, 2, 0, 2, 7, 0, 0, 0, 6, 0, 9, 0, 2, 0, 4, 7, 0, 4, 0, 0, 0, 0, 4, 0, 0, 4, 2, 0, 7, 0, 9, 7, 2, 0, 0, 2, 9, 0, 0, 7, 0, 9, 9, 0, 0, 0, 6, 7],[][11, 31, 13, 42],[34, 3, 14, 37, 5, 28, 2],[47, 26, 35, 9],[24, 16, 19, 27],[22, 0, 36, 7],[48, 10],[30, 49, 41, 33, 17, 6],[25, 23, 40, 21, 8, 18, 4],[1, 44, 38, 43, 32, 12],[15, 20, 45, 39, 29]
10001001110101010010111101100101000110011010010100,00000000000000000000000000000000000000000000000000,00000000000000000000000000000000000000000000000000,00000000000000000000000000000000000000000000000000,00000000000000000000000000000000000000000000000000,00000000000000000000000000000000000000000000000000,00000000000000000000000000000000000000000000000000,00000000000000000000000000000000000000000000000000,01110110001010101101000010011010111001100101100011,00000000000000000000000000000000000000000000000000,[8, 0, 0, 0, 5, 0, 0, 8, 8, 7, 0, 1, 0, 8, 0, 10, 0, 0, 10, 0, 10, 8, 10, 7, 0, 1, 10, 0, 0, 1, 0, 7, 0, 0, 0, 10, 5, 0, 0, 8, 1, 0, 5, 0, 0, 7, 0, 5, 0, 0],[],[],[],[],[],[],[],[0, 2, 9, 6, 0, 9, 2, 0, 0, 0, 6, 0, 3, 0, 4, 0, 4, 9, 0, 2, 0, 0, 0, 0, 6, 0, 0, 3, 9, 0, 6, 0, 2, 3, 9, 0, 0, 3, 3, 0, 0, 2, 0, 6, 3, 0, 0, 0, 4, 9],[][25, 11, 29, 40],[1, 6, 32, 41, 19],[38, 12, 44, 37, 27, 33],[16, 48, 14],[36, 42, 4, 47],[10, 24, 3, 30, 43],[31, 45, 9, 23],[7, 21, 13, 0, 39, 8],[49, 28, 17, 5, 2, 34],[26, 18, 35, 20, 15, 22]
10001001110101010010111101100101000110011010010100,00000000000000000000000000000000000000000000000000,00000000000000000000000000000000000000000000000000,00000000000000000000000000000000000000000000000000,00000000000000000000000000000000000000000000000000,00000000000000000000000000000000000000000000000000,00000000000000000000000000000000000000000000000000,00000000000000000000000000000000000000000000000000,01110110001010101101000010011010111001100101100011,00000000000000000000000000000000000000000000000000,[5, 0, 0, 0, 1, 0, 0, 9, 1, 7, 0, 9, 0, 7, 0, 9, 0, 0, 7, 0, 7, 5, 7, 2, 0, 9, 2, 0, 0, 1, 0, 5, 0, 0, 0, 2, 1, 0, 0, 7, 9, 0, 1, 0, 0, 2, 0, 1, 0, 0],[],[],[],[],[],[],[],[0, 10, 10, 10, 0, 4, 4, 0, 0, 0, 6, 0, 10, 0, 8, 0, 4, 8, 0, 4, 0, 0, 0, 0, 10, 0, 0, 6, 3, 0, 10, 0, 3, 6, 6, 0, 0, 4, 10, 0, 0, 10, 0, 8, 8, 0, 0, 0, 8, 3],[][42, 47, 4, 36, 29, 8],[26, 35, 23, 45],[32, 49, 28],[6, 37, 16, 19, 5],[31, 21, 0],[10, 27, 34, 33],[20, 39, 18, 9, 22, 13],[43, 17, 14, 48, 44],[7, 40, 11, 15, 25],[12, 2, 3, 30, 41, 38, 24, 1]
